out_sudoku.cnf
p cnf 48 312
-1 2 -3 0
-1 -2 3 0
-1 -2 -3 0
1 2 3 0
-1 0
2 0
-3 0
1 2 -3 4 5 -6 0
1 -2 3 4 -5 6 0
1 -2 -3 4 -5 -6 0
-1 2 3 -4 5 6 0
1 2 -3 7 8 -9 0
1 -2 3 7 -8 9 0
1 -2 -3 7 -8 -9 0
-1 2 3 -7 8 9 0
1 2 -3 10 11 -12 0
1 -2 3 10 -11 12 0
1 -2 -3 10 -11 -12 0
-1 2 3 -10 11 12 0
1 2 -3 13 14 -15 0
1 -2 3 13 -14 15 0
1 -2 -3 13 -14 -15 0
-1 2 3 -13 14 15 0
1 2 -3 16 17 -18 0
1 -2 3 16 -17 18 0
1 -2 -3 16 -17 -18 0
-1 2 3 -16 17 18 0
1 2 -3 25 26 -27 0
1 -2 3 25 -26 27 0
1 -2 -3 25 -26 -27 0
-1 2 3 -25 26 27 0
1 2 -3 37 38 -39 0
1 -2 3 37 -38 39 0
1 -2 -3 37 -38 -39 0
-1 2 3 -37 38 39 0
-4 5 -6 0
-4 -5 6 0
-4 -5 -6 0
4 5 6 0
4 5 -6 7 8 -9 0
4 -5 6 7 -8 9 0
4 -5 -6 7 -8 -9 0
-4 5 6 -7 8 9 0
4 5 -6 10 11 -12 0
4 -5 6 10 -11 12 0
4 -5 -6 10 -11 -12 0
-4 5 6 -10 11 12 0
4 5 -6 13 14 -15 0
4 -5 6 13 -14 15 0
4 -5 -6 13 -14 -15 0
-4 5 6 -13 14 15 0
4 5 -6 16 17 -18 0
4 -5 6 16 -17 18 0
4 -5 -6 16 -17 -18 0
-4 5 6 -16 17 18 0
4 5 -6 28 29 -30 0
4 -5 6 28 -29 30 0
4 -5 -6 28 -29 -30 0
-4 5 6 -28 29 30 0
4 5 -6 40 41 -42 0
4 -5 6 40 -41 42 0
4 -5 -6 40 -41 -42 0
-4 5 6 -40 41 42 0
-7 8 -9 0
-7 -8 9 0
-7 -8 -9 0
7 8 9 0
-7 0
8 0
9 0
7 8 -9 10 11 -12 0
7 -8 9 10 -11 12 0
7 -8 -9 10 -11 -12 0
-7 8 9 -10 11 12 0
7 8 -9 19 20 -21 0
7 -8 9 19 -20 21 0
7 -8 -9 19 -20 -21 0
-7 8 9 -19 20 21 0
7 8 -9 22 23 -24 0
7 -8 9 22 -23 24 0
7 -8 -9 22 -23 -24 0
-7 8 9 -22 23 24 0
7 8 -9 31 32 -33 0
7 -8 9 31 -32 33 0
7 -8 -9 31 -32 -33 0
-7 8 9 -31 32 33 0
7 8 -9 43 44 -45 0
7 -8 9 43 -44 45 0
7 -8 -9 43 -44 -45 0
-7 8 9 -43 44 45 0
-10 11 -12 0
-10 -11 12 0
-10 -11 -12 0
10 11 12 0
10 11 -12 19 20 -21 0
10 -11 12 19 -20 21 0
10 -11 -12 19 -20 -21 0
-10 11 12 -19 20 21 0
10 11 -12 22 23 -24 0
10 -11 12 22 -23 24 0
10 -11 -12 22 -23 -24 0
-10 11 12 -22 23 24 0
10 11 -12 34 35 -36 0
10 -11 12 34 -35 36 0
10 -11 -12 34 -35 -36 0
-10 11 12 -34 35 36 0
10 11 -12 46 47 -48 0
10 -11 12 46 -47 48 0
10 -11 -12 46 -47 -48 0
-10 11 12 -46 47 48 0
-13 14 -15 0
-13 -14 15 0
-13 -14 -15 0
13 14 15 0
13 14 -15 16 17 -18 0
13 -14 15 16 -17 18 0
13 -14 -15 16 -17 -18 0
-13 14 15 -16 17 18 0
13 14 -15 19 20 -21 0
13 -14 15 19 -20 21 0
13 -14 -15 19 -20 -21 0
-13 14 15 -19 20 21 0
13 14 -15 22 23 -24 0
13 -14 15 22 -23 24 0
13 -14 -15 22 -23 -24 0
-13 14 15 -22 23 24 0
13 14 -15 25 26 -27 0
13 -14 15 25 -26 27 0
13 -14 -15 25 -26 -27 0
-13 14 15 -25 26 27 0
13 14 -15 37 38 -39 0
13 -14 15 37 -38 39 0
13 -14 -15 37 -38 -39 0
-13 14 15 -37 38 39 0
-16 17 -18 0
-16 -17 18 0
-16 -17 -18 0
16 17 18 0
-16 0
17 0
18 0
16 17 -18 19 20 -21 0
16 -17 18 19 -20 21 0
16 -17 -18 19 -20 -21 0
-16 17 18 -19 20 21 0
16 17 -18 22 23 -24 0
16 -17 18 22 -23 24 0
16 -17 -18 22 -23 -24 0
-16 17 18 -22 23 24 0
16 17 -18 28 29 -30 0
16 -17 18 28 -29 30 0
16 -17 -18 28 -29 -30 0
-16 17 18 -28 29 30 0
16 17 -18 40 41 -42 0
16 -17 18 40 -41 42 0
16 -17 -18 40 -41 -42 0
-16 17 18 -40 41 42 0
-19 20 -21 0
-19 -20 21 0
-19 -20 -21 0
19 20 21 0
19 20 -21 22 23 -24 0
19 -20 21 22 -23 24 0
19 -20 -21 22 -23 -24 0
-19 20 21 -22 23 24 0
19 20 -21 31 32 -33 0
19 -20 21 31 -32 33 0
19 -20 -21 31 -32 -33 0
-19 20 21 -31 32 33 0
19 20 -21 43 44 -45 0
19 -20 21 43 -44 45 0
19 -20 -21 43 -44 -45 0
-19 20 21 -43 44 45 0
-22 23 -24 0
-22 -23 24 0
-22 -23 -24 0
22 23 24 0
-22 0
23 0
-24 0
22 23 -24 34 35 -36 0
22 -23 24 34 -35 36 0
22 -23 -24 34 -35 -36 0
-22 23 24 -34 35 36 0
22 23 -24 46 47 -48 0
22 -23 24 46 -47 48 0
22 -23 -24 46 -47 -48 0
-22 23 24 -46 47 48 0
-25 26 -27 0
-25 -26 27 0
-25 -26 -27 0
25 26 27 0
-25 0
26 0
27 0
25 26 -27 28 29 -30 0
25 -26 27 28 -29 30 0
25 -26 -27 28 -29 -30 0
-25 26 27 -28 29 30 0
25 26 -27 31 32 -33 0
25 -26 27 31 -32 33 0
25 -26 -27 31 -32 -33 0
-25 26 27 -31 32 33 0
25 26 -27 34 35 -36 0
25 -26 27 34 -35 36 0
25 -26 -27 34 -35 -36 0
-25 26 27 -34 35 36 0
25 26 -27 37 38 -39 0
25 -26 27 37 -38 39 0
25 -26 -27 37 -38 -39 0
-25 26 27 -37 38 39 0
25 26 -27 40 41 -42 0
25 -26 27 40 -41 42 0
25 -26 -27 40 -41 -42 0
-25 26 27 -40 41 42 0
-28 29 -30 0
-28 -29 30 0
-28 -29 -30 0
28 29 30 0
28 29 -30 31 32 -33 0
28 -29 30 31 -32 33 0
28 -29 -30 31 -32 -33 0
-28 29 30 -31 32 33 0
28 29 -30 34 35 -36 0
28 -29 30 34 -35 36 0
28 -29 -30 34 -35 -36 0
-28 29 30 -34 35 36 0
28 29 -30 37 38 -39 0
28 -29 30 37 -38 39 0
28 -29 -30 37 -38 -39 0
-28 29 30 -37 38 39 0
28 29 -30 40 41 -42 0
28 -29 30 40 -41 42 0
28 -29 -30 40 -41 -42 0
-28 29 30 -40 41 42 0
-31 32 -33 0
-31 -32 33 0
-31 -32 -33 0
31 32 33 0
31 0
-32 0
-33 0
31 32 -33 34 35 -36 0
31 -32 33 34 -35 36 0
31 -32 -33 34 -35 -36 0
-31 32 33 -34 35 36 0
31 32 -33 43 44 -45 0
31 -32 33 43 -44 45 0
31 -32 -33 43 -44 -45 0
-31 32 33 -43 44 45 0
31 32 -33 46 47 -48 0
31 -32 33 46 -47 48 0
31 -32 -33 46 -47 -48 0
-31 32 33 -46 47 48 0
-34 35 -36 0
-34 -35 36 0
-34 -35 -36 0
34 35 36 0
34 35 -36 43 44 -45 0
34 -35 36 43 -44 45 0
34 -35 -36 43 -44 -45 0
-34 35 36 -43 44 45 0
34 35 -36 46 47 -48 0
34 -35 36 46 -47 48 0
34 -35 -36 46 -47 -48 0
-34 35 36 -46 47 48 0
-37 38 -39 0
-37 -38 39 0
-37 -38 -39 0
37 38 39 0
-37 0
-38 0
39 0
37 38 -39 40 41 -42 0
37 -38 39 40 -41 42 0
37 -38 -39 40 -41 -42 0
-37 38 39 -40 41 42 0
37 38 -39 43 44 -45 0
37 -38 39 43 -44 45 0
37 -38 -39 43 -44 -45 0
-37 38 39 -43 44 45 0
37 38 -39 46 47 -48 0
37 -38 39 46 -47 48 0
37 -38 -39 46 -47 -48 0
-37 38 39 -46 47 48 0
-40 41 -42 0
-40 -41 42 0
-40 -41 -42 0
40 41 42 0
40 0
-41 0
-42 0
40 41 -42 43 44 -45 0
40 -41 42 43 -44 45 0
40 -41 -42 43 -44 -45 0
-40 41 42 -43 44 45 0
40 41 -42 46 47 -48 0
40 -41 42 46 -47 48 0
40 -41 -42 46 -47 -48 0
-40 41 42 -46 47 48 0
-43 44 -45 0
-43 -44 45 0
-43 -44 -45 0
43 44 45 0
43 44 -45 46 47 -48 0
43 -44 45 46 -47 48 0
43 -44 -45 46 -47 -48 0
-43 44 45 -46 47 48 0
-46 47 -48 0
-46 -47 48 0
-46 -47 -48 0
46 47 48 0
