out_sudoku.txt
10 4 5 3 15 6 7 13 11 16 1 9 12 2 8 14 
1 14 11 13 4 9 16 2 12 8 7 15 10 5 3 6 
8 15 16 7 10 5 3 12 2 6 14 13 4 1 11 9 
2 6 12 9 8 11 14 1 10 3 4 5 15 7 16 13 
11 8 6 16 7 13 2 15 3 9 12 4 14 10 5 1 
9 3 2 14 6 4 10 16 13 15 5 1 8 11 7 12 
5 10 4 1 9 3 12 14 7 11 6 8 2 13 15 16 
13 12 7 15 1 8 5 11 16 10 2 14 6 3 9 4 
14 16 8 12 2 7 13 6 1 4 9 11 3 15 10 5 
3 1 13 2 12 15 4 10 6 5 8 7 16 9 14 11 
15 7 10 4 5 1 11 9 14 12 3 16 13 8 6 2 
6 5 9 11 14 16 8 3 15 13 10 2 1 4 12 7 
16 9 3 8 13 2 6 7 5 1 15 12 11 14 4 10 
7 13 14 5 11 10 15 4 8 2 16 6 9 12 1 3 
12 11 1 6 3 14 9 8 4 7 13 10 5 16 2 15 
4 2 15 10 16 12 1 5 9 14 11 3 7 6 13 8 
